g3 1 1 0 # unnamed problem generated by COEK
 15 5 1 0 0 0 # vars, constraints, objectives, ranges, eqns, lcons
 5 1 # nonlinear constraints, objectives
 0 0 # network constraints: nonlinear, linear
 5 5 5 # nonlinear vars in constraints, objectives, both
 0 0 0 1 # linear network variables; functions; arith, flags
 0 0 0 0 0 # discrete variables: binary, integer, nonlinear (b,c,o)
 62 15 # nonzeros in Jacobian, gradients
 0 0 # max name lengths: constraints, variables
 0 0 0 0 0 # common exprs: b,c,o,c1,o1
C0
o2
n12
o5
v10
n2
C1
o2
n24
o5
v11
n2
C2
o2
n30
o5
v12
n2
C3
o2
n18
o5
v13
n2
C4
o2
n6
o5
v14
n2
O0 0
o54
16

o2
n30
o2
v10
v10

o2
n-40
o2
v10
v11

o2
n-20
o2
v10
v12

o2
n64
o2
v10
v13

o2
n-20
o2
v10
v14

o2
n39
o2
v11
v11
o2
n-12
o2
v11
v12
o2
n-62
o2
v11
v13
o2
n64
o2
v11
v14
o2
n10
o2
v12
v12
o2
n-12
o2
v12
v13
o2
n-20
o2
v12
v14
o2
n39
o2
v13
v13
o2
n-40
o2
v13
v14
o2
n30
o2
v14
v14
o54
5
o2
n8
o5
v10
n3
o2
n16
o5
v11
n3
o2
n20
o5
v12
n3
o2
n12
o5
v13
n3
o2
n4
o5
v14
n3
x15
0 0.001
1 0.001
2 0.001
3 0.001
4 0.001
5 0.001
6 60
7 0.001
8 0.001
9 0.001
10 0.001
11 0.001
12 0.001
13 0.001
14 0.001
r
2 15
2 27
2 36
2 18
2 12
b
2 0
2 0
2 0
2 0
2 0
2 0
2 0
2 0
2 0
2 0
2 0
2 0
2 0
2 0
2 0
k14
3
6
8
11
15
17
22
27
32
37
42
47
52
57
J0 12
0 16
2 3.5
5 -2
6 1
7 1
8 -1
9 -1
10 60
11 -40
12 -20
13 64
14 -20
J1 13
0 -2
1 2
3 2
4 9
6 1
7 2
8 -2
9 -1
10 -40
11 78
12 -12
13 -62
14 64
J2 12
2 -2
4 2
5 4
6 1
7 3
8 -3
9 -1
10 -20
11 -12
12 20
13 -12
14 -20
J3 13
0 -1
1 -4
3 4
4 -1
6 1
7 2
8 -4
9 -1
10 64
11 -62
12 -12
13 78
14 -40
J4 12
1 -2
3 1
4 2.8
6 1
7 1
8 -5
9 -1
10 -20
11 64
12 -20
13 -40
14 60
G0 15
0 40
1 2
2 0.25
3 4
4 4
5 1
6 40
7 60
8 -5
9 -1
10 0
11 0
12 0
13 0
14 0
